
Gurobi 9.1.1 (win64) logging started Sat Apr 16 21:01:13 2022

Changed value of parameter LogFile to ./Log/Pattern_Appro_solver_150_order_15_batch.log
   Prev:   Default: 
Gurobi Optimizer version 9.1.1 build v9.1.1rc0 (win64)
Thread count: 6 physical cores, 12 logical processors, using up to 12 threads
Optimize a model with 844 rows, 2355 columns and 7755 nonzeros
Model fingerprint: 0xde483301
Variable types: 0 continuous, 2355 integer (2055 binary)
Coefficient statistics:
  Matrix range     [1e+00, 1e+01]
  Objective range  [1e+00, 4e+01]
  Bounds range     [1e+00, 6e+00]
  RHS range        [1e+00, 1e+01]
Found heuristic solution: objective 2588.0000000
Presolve removed 240 rows and 411 columns
Presolve time: 0.01s
Presolved: 604 rows, 1944 columns, 6274 nonzeros
Variable types: 0 continuous, 1944 integer (1661 binary)

Root relaxation: objective 8.455310e+02, 2285 iterations, 0.03 seconds

    Nodes    |    Current Node    |     Objective Bounds      |     Work
 Expl Unexpl |  Obj  Depth IntInf | Incumbent    BestBd   Gap | It/Node Time

     0     0  845.53095    0  101 2588.00000  845.53095  67.3%     -    0s
H    0     0                    1787.0000000  845.53095  52.7%     -    0s
H    0     0                    1772.0000000  845.53095  52.3%     -    0s
H    0     0                    1682.0000000  845.53095  49.7%     -    0s
H    0     0                    1670.0000000  845.53095  49.4%     -    0s
H    0     0                    1575.0000000  845.53095  46.3%     -    0s
H    0     0                    1537.0000000  845.53095  45.0%     -    0s
     0     0  891.43469    0  237 1537.00000  891.43469  42.0%     -    0s
H    0     0                    1514.0000000  891.43469  41.1%     -    0s
     0     0  892.09901    0  230 1514.00000  892.09901  41.1%     -    0s
     0     0  892.13322    0  238 1514.00000  892.13322  41.1%     -    0s
H    0     0                    1508.0000000  892.13322  40.8%     -    0s
H    0     0                    1480.0000000  892.13322  39.7%     -    0s
H    0     0                    1479.0000000  892.13322  39.7%     -    0s
     0     0  938.49807    0  342 1479.00000  938.49807  36.5%     -    0s
     0     0  942.27583    0  366 1479.00000  942.27583  36.3%     -    0s
     0     0  942.90662    0  366 1479.00000  942.90662  36.2%     -    0s
     0     0  943.32228    0  370 1479.00000  943.32228  36.2%     -    0s
     0     0  943.43393    0  365 1479.00000  943.43393  36.2%     -    0s
     0     0  943.44689    0  377 1479.00000  943.44689  36.2%     -    0s
H    0     0                    1478.0000000  943.44689  36.2%     -    0s
     0     0  960.93546    0  448 1478.00000  960.93546  35.0%     -    0s
H    0     0                    1445.0000000  960.93546  33.5%     -    0s
     0     0  964.63182    0  417 1445.00000  964.63182  33.2%     -    0s
     0     0  965.78661    0  454 1445.00000  965.78661  33.2%     -    0s
     0     0  966.05413    0  453 1445.00000  966.05413  33.1%     -    0s
     0     0  966.10717    0  452 1445.00000  966.10717  33.1%     -    0s
     0     0  981.18958    0  575 1445.00000  981.18958  32.1%     -    0s
     0     0  985.67390    0  647 1445.00000  985.67390  31.8%     -    1s
     0     0  986.93484    0  691 1445.00000  986.93484  31.7%     -    1s
     0     0  987.42186    0  691 1445.00000  987.42186  31.7%     -    1s
     0     0  987.59423    0  743 1445.00000  987.59423  31.7%     -    1s
     0     0  987.66358    0  733 1445.00000  987.66358  31.6%     -    1s
     0     0  995.00911    0  872 1445.00000  995.00911  31.1%     -    1s
H    0     0                    1431.0000000  995.00911  30.5%     -    1s
     0     0  996.89323    0  897 1431.00000  996.89323  30.3%     -    1s
     0     0  998.06631    0  930 1431.00000  998.06631  30.3%     -    2s
     0     0  998.82644    0  954 1431.00000  998.82644  30.2%     -    2s
     0     0  999.12700    0  957 1431.00000  999.12700  30.2%     -    2s
     0     0  999.26357    0  970 1431.00000  999.26357  30.2%     -    2s
H    0     0                    1420.0000000  999.26357  29.6%     -    3s
H    0     0                    1408.0000000  999.26357  29.0%     -    3s
     0     0 1002.70296    0 1106 1408.00000 1002.70296  28.8%     -    3s
     0     0 1004.12910    0 1181 1408.00000 1004.12910  28.7%     -    3s
     0     0 1005.08063    0 1135 1408.00000 1005.08063  28.6%     -    3s
     0     0 1005.76364    0 1166 1408.00000 1005.76364  28.6%     -    3s
     0     0 1006.06370    0 1183 1408.00000 1006.06370  28.5%     -    3s
H    0     0                    1400.0000000 1006.06370  28.1%     -    4s
H    0     0                    1394.0000000 1006.06370  27.8%     -    4s
     0     0 1009.01037    0 1210 1394.00000 1009.01037  27.6%     -    4s
     0     0 1010.76418    0 1325 1394.00000 1010.76418  27.5%     -    4s
     0     0 1011.73388    0 1301 1394.00000 1011.73388  27.4%     -    5s
     0     0 1012.15240    0 1310 1394.00000 1012.15240  27.4%     -    5s
     0     0 1012.54610    0 1328 1394.00000 1012.54610  27.4%     -    5s
     0     0 1012.69605    0 1337 1394.00000 1012.69605  27.4%     -    5s
     0     0 1015.11634    0 1438 1394.00000 1015.11634  27.2%     -    6s
     0     0 1016.45108    0 1449 1394.00000 1016.45108  27.1%     -    6s
     0     0 1017.10598    0 1491 1394.00000 1017.10598  27.0%     -    7s
     0     0 1017.52901    0 1498 1394.00000 1017.52901  27.0%     -    7s
     0     0 1019.50886    0 1537 1394.00000 1019.50886  26.9%     -    7s
     0     0 1019.50886    0 1533 1394.00000 1019.50886  26.9%     -    7s
H    0     0                    1381.0000000 1019.50886  26.2%     -    9s
     0     2 1019.50886    0 1533 1381.00000 1019.50886  26.2%     -    9s
     1     4 1019.83518    1 1487 1381.00000 1019.55030  26.2%   281   10s
    19    26 1031.17366    5 1575 1381.00000 1022.82844  25.9%  2628   16s
    63    72 1059.58143   11 1428 1381.00000 1022.82844  25.9%  1585   20s
   158   170 1153.16567   25 1208 1381.00000 1022.82844  25.9%  1075   25s
   282   292 1228.73340   37  684 1381.00000 1022.82844  25.9%   875   30s
H  287   292                    1379.0000000 1022.82844  25.8%   867   30s
H  319   292                    1373.0000000 1022.82844  25.5%   812   30s
   438   382 1064.79039    5 1625 1373.00000 1029.78622  25.0%   781   35s
H  441   379                    1371.0000000 1029.78622  24.9%   780   35s
H  526   458                    1365.0000000 1029.78622  24.6%   780   39s
   537   486 1113.84811   16 1463 1365.00000 1029.78622  24.6%   779   40s
H  593   486                    1359.0000000 1029.78622  24.2%   750   42s
H  645   534                    1357.0000000 1029.78622  24.1%   750   44s
   665   578 1147.79904   34 1489 1357.00000 1029.78622  24.1%   743   45s
H  713   574                    1351.0000000 1029.78622  23.8%   717   45s
H  806   661                    1347.0000000 1029.78622  23.5%   726   49s
   826   697 1228.62926   63 1027 1347.00000 1029.78622  23.5%   726   50s
   909   766 1299.86249   74 1194 1347.00000 1029.78622  23.5%   717   55s
  1026   841     cutoff   87      1347.00000 1029.78622  23.5%   696   60s

Cutting planes:
  Gomory: 56
  Cover: 1588
  Implied bound: 149
  Clique: 433
  MIR: 98
  StrongCG: 9
  Flow cover: 88
  GUB cover: 1
  Zero half: 39
  Relax-and-lift: 11

Explored 1044 nodes (749661 simplex iterations) in 60.01 seconds
Thread count was 12 (of 12 available processors)

Solution count 10: 1347 1351 1357 ... 1394

Time limit reached
Best objective 1.347000000000e+03, best bound 1.030000000000e+03, gap 23.5338%
